0 33 10 78 45 12 48 81 57 13 96
33 0 28 42 38 92 95 55 38 34 64
10 28 0 99 44 100 85 32 50 8 83
78 42 99 0 62 66 44 6 50 1 61
45 38 44 62 0 34 49 82 44 37 78
12 92 100 66 34 0 4 77 33 96 25
48 95 85 44 49 4 0 60 25 53 82
81 55 32 6 82 77 60 0 35 22 5
57 38 50 50 44 33 25 35 0 92 34
13 34 8 1 37 96 53 22 92 0 62
96 64 83 61 78 25 82 5 34 62 0
